param n := 3;
set S[1] := 1 2 3 4 5 6 7 8 9 10;
set S[2] := 1 2 3 4 5 6 7 8 9 10;
set S[3] := 1 2 3 4 5 6 7 8 9 10;

param A :=
[*,1,1,1]  1 99 2 33 3 333
[*,2,1,1]  1 240 2 683 3 277
[*,3,1,1]  1 374 2 829 3 983
[*,4,1,1]  1 474 2 7 3 89
[*,5,1,1]  1 336 2 328 3 940
[*,6,1,1]  1 821 2 649 3 624
[*,7,1,1]  1 76 2 282 3 763
[*,8,1,1]  1 941 2 520 3 723
[*,9,1,1]  1 334 2 855 3 61
[*,10,1,1]  1 430 2 369 3 721
[*,1,2,1]  1 59 2 356 3 120
[*,2,2,1]  1 622 2 799 3 551
[*,3,2,1]  1 981 2 120 3 397
[*,4,2,1]  1 887 2 405 3 210
[*,5,2,1]  1 307 2 37 3 627
[*,6,2,1]  1 272 2 309 3 268
[*,7,2,1]  1 155 2 893 3 617
[*,8,2,1]  1 368 2 577 3 116
[*,9,2,1]  1 416 2 954 3 215
[*,10,2,1]  1 82 2 693 3 471
[*,1,3,1]  1 567 2 25 3 708
[*,2,3,1]  1 439 2 247 3 296
[*,3,3,1]  1 817 2 874 3 395
[*,4,3,1]  1 395 2 680 3 371
[*,5,3,1]  1 81 2 39 3 25
[*,6,3,1]  1 33 2 299 3 890
[*,7,3,1]  1 297 2 263 3 543
[*,8,3,1]  1 917 2 478 3 497
[*,9,3,1]  1 802 2 321 3 297
[*,10,3,1]  1 73 2 51 3 565
[*,1,4,1]  1 878 2 789 3 950
[*,2,4,1]  1 342 2 559 3 178
[*,3,4,1]  1 536 2 236 3 289
[*,4,4,1]  1 156 2 116 3 440
[*,5,4,1]  1 523 2 501 3 484
[*,6,4,1]  1 116 2 969 3 579
[*,7,4,1]  1 794 2 916 3 913
[*,8,4,1]  1 815 2 155 3 709
[*,9,4,1]  1 93 2 696 3 63
[*,10,4,1]  1 813 2 234 3 500
[*,1,5,1]  1 275 2 862 3 470
[*,2,5,1]  1 515 2 649 3 5
[*,3,5,1]  1 795 2 258 3 751
[*,4,5,1]  1 282 2 616 3 77
[*,5,5,1]  1 747 2 900 3 237
[*,6,5,1]  1 571 2 219 3 598
[*,7,5,1]  1 799 2 464 3 51
[*,8,5,1]  1 458 2 814 3 915
[*,9,5,1]  1 467 2 331 3 921
[*,10,5,1]  1 781 2 643 3 498
[*,1,6,1]  1 905 2 990 3 29
[*,2,6,1]  1 332 2 350 3 26
[*,3,6,1]  1 691 2 478 3 500
[*,4,6,1]  1 509 2 520 3 527
[*,5,6,1]  1 58 2 976 3 110
[*,6,6,1]  1 227 2 653 3 287
[*,7,6,1]  1 488 2 54 3 692
[*,8,6,1]  1 496 2 626 3 321
[*,9,6,1]  1 126 2 676 3 860
[*,10,6,1]  1 122 2 426 3 907
[*,1,7,1]  1 918 2 65 3 736
[*,2,7,1]  1 593 2 253 3 171
[*,3,7,1]  1 720 2 313 3 754
[*,4,7,1]  1 295 2 114 3 679
[*,5,7,1]  1 736 2 169 3 341
[*,6,7,1]  1 28 2 305 3 439
[*,7,7,1]  1 889 2 345 3 803
[*,8,7,1]  1 127 2 264 3 499
[*,9,7,1]  1 65 2 565 3 523
[*,10,7,1]  1 734 2 651 3 163
[*,1,8,1]  1 311 2 373 3 41
[*,2,8,1]  1 361 2 289 3 860
[*,3,8,1]  1 25 2 697 3 651
[*,4,8,1]  1 590 2 156 3 251
[*,5,8,1]  1 124 2 453 3 211
[*,6,8,1]  1 609 2 514 3 667
[*,7,8,1]  1 22 2 120 3 360
[*,8,8,1]  1 267 2 954 3 448
[*,9,8,1]  1 734 2 547 3 523
[*,10,8,1]  1 332 2 549 3 892
[*,1,9,1]  1 372 2 12 3 994
[*,2,9,1]  1 672 2 878 3 21
[*,3,9,1]  1 898 2 305 3 151
[*,4,9,1]  1 890 2 869 3 163
[*,5,9,1]  1 110 2 848 3 25
[*,6,9,1]  1 723 2 579 3 799
[*,7,9,1]  1 51 2 270 3 99
[*,8,9,1]  1 679 2 42 3 484
[*,9,9,1]  1 226 2 791 3 350
[*,10,9,1]  1 455 2 641 3 906
[*,1,10,1]  1 195 2 12 3 300
[*,2,10,1]  1 666 2 346 3 792
[*,3,10,1]  1 190 2 354 3 560
[*,4,10,1]  1 109 2 8 3 175
[*,5,10,1]  1 805 2 542 3 213
[*,6,10,1]  1 984 2 513 3 111
[*,7,10,1]  1 452 2 842 3 213
[*,8,10,1]  1 76 2 331 3 852
[*,9,10,1]  1 984 2 667 3 861
[*,10,10,1]  1 489 2 50 3 518
[*,1,1,2]  1 663 2 35 3 724
[*,2,1,2]  1 166 2 229 3 793
[*,3,1,2]  1 670 2 770 3 71
[*,4,1,2]  1 465 2 67 3 79
[*,5,1,2]  1 635 2 457 3 889
[*,6,1,2]  1 805 2 201 3 897
[*,7,1,2]  1 934 2 737 3 816
[*,8,1,2]  1 838 2 651 3 369
[*,9,1,2]  1 530 2 461 3 72
[*,10,1,2]  1 313 2 777 3 94
[*,1,2,2]  1 387 2 501 3 813
[*,2,2,2]  1 497 2 746 3 29
[*,3,2,2]  1 505 2 202 3 930
[*,4,2,2]  1 493 2 630 3 639
[*,5,2,2]  1 399 2 858 3 72
[*,6,2,2]  1 411 2 88 3 212
[*,7,2,2]  1 940 2 359 3 993
[*,8,2,2]  1 240 2 695 3 985
[*,9,2,2]  1 263 2 901 3 836
[*,10,2,2]  1 414 2 39 3 573
[*,1,3,2]  1 535 2 287 3 696
[*,2,3,2]  1 876 2 913 3 915
[*,3,3,2]  1 543 2 521 3 301
[*,4,3,2]  1 567 2 234 3 748
[*,5,3,2]  1 927 2 971 3 360
[*,6,3,2]  1 381 2 951 3 16
[*,7,3,2]  1 709 2 72 3 676
[*,8,3,2]  1 114 2 694 3 48
[*,9,3,2]  1 45 2 927 3 303
[*,10,3,2]  1 571 2 275 3 961
[*,1,4,2]  1 730 2 342 3 551
[*,2,4,2]  1 39 2 513 3 316
[*,3,4,2]  1 257 2 830 3 643
[*,4,4,2]  1 709 2 147 3 401
[*,5,4,2]  1 569 2 525 3 156
[*,6,4,2]  1 247 2 465 3 582
[*,7,4,2]  1 338 2 340 3 434
[*,8,4,2]  1 853 2 531 3 575
[*,9,4,2]  1 546 2 902 3 912
[*,10,4,2]  1 354 2 734 3 348
[*,1,5,2]  1 569 2 203 3 614
[*,2,5,2]  1 586 2 561 3 25
[*,3,5,2]  1 242 2 429 3 732
[*,4,5,2]  1 11 2 649 3 949
[*,5,5,2]  1 706 2 282 3 776
[*,6,5,2]  1 569 2 83 3 67
[*,7,5,2]  1 77 2 356 3 824
[*,8,5,2]  1 578 2 620 3 552
[*,9,5,2]  1 251 2 763 3 13
[*,10,5,2]  1 621 2 834 3 845
[*,1,6,2]  1 834 2 453 3 196
[*,2,6,2]  1 840 2 548 3 929
[*,3,6,2]  1 345 2 283 3 78
[*,4,6,2]  1 749 2 192 3 30
[*,5,6,2]  1 310 2 281 3 805
[*,6,6,2]  1 320 2 788 3 183
[*,7,6,2]  1 723 2 236 3 798
[*,8,6,2]  1 763 2 863 3 336
[*,9,6,2]  1 840 2 302 3 203
[*,10,6,2]  1 501 2 211 3 128
[*,1,7,2]  1 495 2 976 3 57
[*,2,7,2]  1 784 2 697 3 184
[*,3,7,2]  1 786 2 482 3 683
[*,4,7,2]  1 123 2 172 3 977
[*,5,7,2]  1 78 2 72 3 848
[*,6,7,2]  1 75 2 710 3 887
[*,7,7,2]  1 104 2 278 3 286
[*,8,7,2]  1 383 2 102 3 487
[*,9,7,2]  1 368 2 173 3 679
[*,10,7,2]  1 242 2 621 3 858
[*,1,8,2]  1 863 2 716 3 628
[*,2,8,2]  1 660 2 137 3 588
[*,3,8,2]  1 240 2 406 3 245
[*,4,8,2]  1 930 2 576 3 293
[*,5,8,2]  1 52 2 469 3 291
[*,6,8,2]  1 10 2 535 3 928
[*,7,8,2]  1 657 2 591 3 529
[*,8,8,2]  1 672 2 350 3 849
[*,9,8,2]  1 228 2 548 3 545
[*,10,8,2]  1 376 2 776 3 629
[*,1,9,2]  1 104 2 836 3 493
[*,2,9,2]  1 570 2 168 3 750
[*,3,9,2]  1 440 2 396 3 428
[*,4,9,2]  1 45 2 19 3 864
[*,5,9,2]  1 712 2 386 3 292
[*,6,9,2]  1 974 2 314 3 716
[*,7,9,2]  1 512 2 808 3 633
[*,8,9,2]  1 492 2 147 3 648
[*,9,9,2]  1 305 2 812 3 314
[*,10,9,2]  1 252 2 990 3 10
[*,1,10,2]  1 119 2 204 3 361
[*,2,10,2]  1 320 2 884 3 540
[*,3,10,2]  1 655 2 887 3 580
[*,4,10,2]  1 192 2 354 3 764
[*,5,10,2]  1 137 2 361 3 179
[*,6,10,2]  1 503 2 431 3 626
[*,7,10,2]  1 585 2 630 3 874
[*,8,10,2]  1 449 2 395 3 584
[*,9,10,2]  1 561 2 753 3 29
[*,10,10,2]  1 668 2 783 3 406
[*,1,1,3]  1 28 2 191 3 590
[*,2,1,3]  1 802 2 214 3 262
[*,3,1,3]  1 769 2 158 3 888
[*,4,1,3]  1 598 2 265 3 846
[*,5,1,3]  1 919 2 351 3 579
[*,6,1,3]  1 821 2 435 3 164
[*,7,1,3]  1 139 2 180 3 117
[*,8,1,3]  1 581 2 986 3 1000
[*,9,1,3]  1 759 2 517 3 367
[*,10,1,3]  1 846 2 831 3 662
[*,1,2,3]  1 988 2 774 3 300
[*,2,2,3]  1 632 2 754 3 221
[*,3,2,3]  1 836 2 131 3 789
[*,4,2,3]  1 909 2 830 3 645
[*,5,2,3]  1 413 2 787 3 384
[*,6,2,3]  1 979 2 538 3 48
[*,7,2,3]  1 518 2 469 3 642
[*,8,2,3]  1 505 2 372 3 850
[*,9,2,3]  1 63 2 915 3 122
[*,10,2,3]  1 564 2 889 3 407
[*,1,3,3]  1 629 2 769 3 91
[*,2,3,3]  1 784 2 611 3 424
[*,3,3,3]  1 911 2 334 3 256
[*,4,3,3]  1 600 2 690 3 755
[*,5,3,3]  1 757 2 624 3 500
[*,6,3,3]  1 930 2 184 3 704
[*,7,3,3]  1 932 2 584 3 517
[*,8,3,3]  1 509 2 384 3 319
[*,9,3,3]  1 381 2 489 3 994
[*,10,3,3]  1 102 2 242 3 855
[*,1,4,3]  1 159 2 82 3 389
[*,2,4,3]  1 820 2 206 3 486
[*,3,4,3]  1 13 2 72 3 382
[*,4,4,3]  1 454 2 103 3 493
[*,5,4,3]  1 774 2 901 3 664
[*,6,4,3]  1 812 2 174 3 854
[*,7,4,3]  1 985 2 228 3 169
[*,8,4,3]  1 290 2 287 3 28
[*,9,4,3]  1 951 2 182 3 119
[*,10,4,3]  1 888 2 417 3 320
[*,1,5,3]  1 266 2 841 3 151
[*,2,5,3]  1 490 2 805 3 883
[*,3,5,3]  1 786 2 760 3 153
[*,4,5,3]  1 785 2 59 3 947
[*,5,5,3]  1 602 2 971 3 596
[*,6,5,3]  1 817 2 921 3 269
[*,7,5,3]  1 104 2 228 3 995
[*,8,5,3]  1 896 2 155 3 181
[*,9,5,3]  1 412 2 332 3 238
[*,10,5,3]  1 734 2 123 3 593
[*,1,6,3]  1 45 2 819 3 8
[*,2,6,3]  1 25 2 261 3 270
[*,3,6,3]  1 240 2 898 3 260
[*,4,6,3]  1 778 2 857 3 8
[*,5,6,3]  1 195 2 98 3 823
[*,6,6,3]  1 982 2 920 3 511
[*,7,6,3]  1 171 2 183 3 93
[*,8,6,3]  1 489 2 524 3 958
[*,9,6,3]  1 563 2 508 3 423
[*,10,6,3]  1 451 2 869 3 182
[*,1,7,3]  1 370 2 374 3 241
[*,2,7,3]  1 243 2 480 3 931
[*,3,7,3]  1 36 2 386 3 903
[*,4,7,3]  1 549 2 921 3 705
[*,5,7,3]  1 978 2 211 3 451
[*,6,7,3]  1 224 2 177 3 946
[*,7,7,3]  1 915 2 46 3 485
[*,8,7,3]  1 470 2 431 3 767
[*,9,7,3]  1 793 2 67 3 340
[*,10,7,3]  1 93 2 264 3 553
[*,1,8,3]  1 862 2 45 3 393
[*,2,8,3]  1 542 2 841 3 767
[*,3,8,3]  1 666 2 330 3 160
[*,4,8,3]  1 679 2 289 3 399
[*,5,8,3]  1 61 2 662 3 480
[*,6,8,3]  1 923 2 186 3 39
[*,7,8,3]  1 163 2 705 3 604
[*,8,8,3]  1 312 2 769 3 623
[*,9,8,3]  1 501 2 63 3 993
[*,10,8,3]  1 40 2 474 3 908
[*,1,9,3]  1 7 2 600 3 556
[*,2,9,3]  1 136 2 656 3 512
[*,3,9,3]  1 234 2 501 3 553
[*,4,9,3]  1 712 2 681 3 666
[*,5,9,3]  1 863 2 268 3 365
[*,6,9,3]  1 934 2 783 3 18
[*,7,9,3]  1 5 2 267 3 365
[*,8,9,3]  1 707 2 569 3 46
[*,9,9,3]  1 412 2 812 3 639
[*,10,9,3]  1 674 2 593 3 860
[*,1,10,3]  1 2 2 913 3 818
[*,2,10,3]  1 265 2 769 3 806
[*,3,10,3]  1 175 2 630 3 681
[*,4,10,3]  1 129 2 410 3 12
[*,5,10,3]  1 497 2 595 3 993
[*,6,10,3]  1 865 2 542 3 423
[*,7,10,3]  1 354 2 256 3 550
[*,8,10,3]  1 508 2 701 3 456
[*,9,10,3]  1 898 2 105 3 193
[*,10,10,3]  1 228 2 236 3 873
[*,1,1,4]  1 905 2 929 3 279
[*,2,1,4]  1 134 2 172 3 87
[*,3,1,4]  1 229 2 432 3 394
[*,4,1,4]  1 230 2 896 3 809
[*,5,1,4]  1 313 2 579 3 82
[*,6,1,4]  1 744 2 133 3 665
[*,7,1,4]  1 217 2 364 3 544
[*,8,1,4]  1 60 2 547 3 351
[*,9,1,4]  1 918 2 200 3 386
[*,10,1,4]  1 982 2 433 3 687
[*,1,2,4]  1 96 2 832 3 888
[*,2,2,4]  1 578 2 484 3 999
[*,3,2,4]  1 323 2 886 3 233
[*,4,2,4]  1 156 2 300 3 958
[*,5,2,4]  1 868 2 313 3 929
[*,6,2,4]  1 407 2 473 3 975
[*,7,2,4]  1 262 2 40 3 67
[*,8,2,4]  1 275 2 684 3 562
[*,9,2,4]  1 97 2 740 3 339
[*,10,2,4]  1 874 2 984 3 581
[*,1,3,4]  1 396 2 476 3 46
[*,2,3,4]  1 801 2 210 3 816
[*,3,3,4]  1 389 2 922 3 12
[*,4,3,4]  1 425 2 572 3 876
[*,5,3,4]  1 800 2 337 3 937
[*,6,3,4]  1 429 2 537 3 600
[*,7,3,4]  1 499 2 533 3 565
[*,8,3,4]  1 640 2 209 3 172
[*,9,3,4]  1 422 2 883 3 220
[*,10,3,4]  1 585 2 861 3 294
[*,1,4,4]  1 502 2 234 3 950
[*,2,4,4]  1 452 2 786 3 536
[*,3,4,4]  1 559 2 341 3 364
[*,4,4,4]  1 133 2 440 3 318
[*,5,4,4]  1 694 2 483 3 343
[*,6,4,4]  1 587 2 117 3 603
[*,7,4,4]  1 312 2 104 3 259
[*,8,4,4]  1 101 2 371 3 22
[*,9,4,4]  1 836 2 21 3 314
[*,10,4,4]  1 669 2 652 3 629
[*,1,5,4]  1 202 2 597 3 555
[*,2,5,4]  1 974 2 459 3 388
[*,3,5,4]  1 1000 2 972 3 197
[*,4,5,4]  1 789 2 650 3 762
[*,5,5,4]  1 481 2 191 3 132
[*,6,5,4]  1 350 2 791 3 685
[*,7,5,4]  1 676 2 835 3 852
[*,8,5,4]  1 674 2 861 3 101
[*,9,5,4]  1 332 2 529 3 110
[*,10,5,4]  1 450 2 668 3 882
[*,1,6,4]  1 886 2 561 3 397
[*,2,6,4]  1 935 2 767 3 54
[*,3,6,4]  1 947 2 579 3 712
[*,4,6,4]  1 152 2 777 3 242
[*,5,6,4]  1 862 2 174 3 148
[*,6,6,4]  1 98 2 165 3 73
[*,7,6,4]  1 540 2 693 3 957
[*,8,6,4]  1 824 2 954 3 101
[*,9,6,4]  1 396 2 241 3 864
[*,10,6,4]  1 420 2 292 3 706
[*,1,7,4]  1 631 2 831 3 467
[*,2,7,4]  1 383 2 548 3 418
[*,3,7,4]  1 220 2 718 3 494
[*,4,7,4]  1 681 2 890 3 406
[*,5,7,4]  1 398 2 983 3 755
[*,6,7,4]  1 550 2 307 3 176
[*,7,7,4]  1 738 2 460 3 894
[*,8,7,4]  1 318 2 456 3 364
[*,9,7,4]  1 646 2 685 3 175
[*,10,7,4]  1 325 2 825 3 254
[*,1,8,4]  1 136 2 860 3 531
[*,2,8,4]  1 460 2 535 3 18
[*,3,8,4]  1 815 2 304 3 154
[*,4,8,4]  1 222 2 893 3 818
[*,5,8,4]  1 307 2 771 3 914
[*,6,8,4]  1 500 2 242 3 718
[*,7,8,4]  1 648 2 560 3 636
[*,8,8,4]  1 771 2 686 3 730
[*,9,8,4]  1 143 2 989 3 461
[*,10,8,4]  1 958 2 206 3 299
[*,1,9,4]  1 458 2 513 3 525
[*,2,9,4]  1 272 2 471 3 885
[*,3,9,4]  1 621 2 182 3 672
[*,4,9,4]  1 443 2 916 3 103
[*,5,9,4]  1 552 2 925 3 641
[*,6,9,4]  1 677 2 498 3 742
[*,7,9,4]  1 646 2 243 3 895
[*,8,9,4]  1 544 2 897 3 203
[*,9,9,4]  1 150 2 632 3 43
[*,10,9,4]  1 871 2 970 3 660
[*,1,10,4]  1 930 2 554 3 566
[*,2,10,4]  1 486 2 357 3 292
[*,3,10,4]  1 164 2 180 3 689
[*,4,10,4]  1 493 2 395 3 971
[*,5,10,4]  1 163 2 702 3 648
[*,6,10,4]  1 349 2 839 3 866
[*,7,10,4]  1 446 2 623 3 224
[*,8,10,4]  1 752 2 275 3 989
[*,9,10,4]  1 485 2 635 3 43
[*,10,10,4]  1 576 2 57 3 961
[*,1,1,5]  1 558 2 958 3 197
[*,2,1,5]  1 478 2 954 3 400
[*,3,1,5]  1 683 2 221 3 29
[*,4,1,5]  1 410 2 432 3 836
[*,5,1,5]  1 816 2 248 3 308
[*,6,1,5]  1 931 2 529 3 699
[*,7,1,5]  1 715 2 571 3 240
[*,8,1,5]  1 774 2 921 3 522
[*,9,1,5]  1 232 2 989 3 205
[*,10,1,5]  1 614 2 20 3 530
[*,1,2,5]  1 38 2 390 3 450
[*,2,2,5]  1 924 2 504 3 257
[*,3,2,5]  1 109 2 797 3 97
[*,4,2,5]  1 520 2 529 3 923
[*,5,2,5]  1 814 2 979 3 315
[*,6,2,5]  1 55 2 227 3 299
[*,7,2,5]  1 371 2 942 3 815
[*,8,2,5]  1 945 2 859 3 556
[*,9,2,5]  1 388 2 310 3 396
[*,10,2,5]  1 778 2 878 3 594
[*,1,3,5]  1 250 2 698 3 117
[*,2,3,5]  1 109 2 995 3 258
[*,3,3,5]  1 470 2 930 3 139
[*,4,3,5]  1 165 2 372 3 264
[*,5,3,5]  1 763 2 881 3 862
[*,6,3,5]  1 435 2 71 3 32
[*,7,3,5]  1 200 2 175 3 74
[*,8,3,5]  1 751 2 516 3 736
[*,9,3,5]  1 332 2 305 3 241
[*,10,3,5]  1 439 2 795 3 891
[*,1,4,5]  1 754 2 428 3 295
[*,2,4,5]  1 582 2 279 3 787
[*,3,4,5]  1 188 2 259 3 571
[*,4,4,5]  1 686 2 951 3 817
[*,5,4,5]  1 347 2 855 3 305
[*,6,4,5]  1 47 2 716 3 580
[*,7,4,5]  1 557 2 376 3 120
[*,8,4,5]  1 315 2 424 3 107
[*,9,4,5]  1 389 2 214 3 557
[*,10,4,5]  1 845 2 578 3 130
[*,1,5,5]  1 323 2 581 3 183
[*,2,5,5]  1 102 2 226 3 305
[*,3,5,5]  1 184 2 960 3 453
[*,4,5,5]  1 51 2 122 3 418
[*,5,5,5]  1 694 2 25 3 67
[*,6,5,5]  1 979 2 299 3 823
[*,7,5,5]  1 918 2 13 3 287
[*,8,5,5]  1 777 2 938 3 630
[*,9,5,5]  1 491 2 147 3 800
[*,10,5,5]  1 347 2 351 3 236
[*,1,6,5]  1 737 2 82 3 457
[*,2,6,5]  1 471 2 534 3 732
[*,3,6,5]  1 998 2 174 3 248
[*,4,6,5]  1 419 2 669 3 55
[*,5,6,5]  1 506 2 526 3 435
[*,6,6,5]  1 392 2 168 3 809
[*,7,6,5]  1 794 2 536 3 958
[*,8,6,5]  1 171 2 813 3 614
[*,9,6,5]  1 363 2 205 3 283
[*,10,6,5]  1 259 2 769 3 228
[*,1,7,5]  1 768 2 787 3 311
[*,2,7,5]  1 311 2 218 3 473
[*,3,7,5]  1 367 2 797 3 74
[*,4,7,5]  1 503 2 965 3 861
[*,5,7,5]  1 450 2 716 3 657
[*,6,7,5]  1 968 2 101 3 491
[*,7,7,5]  1 518 2 471 3 339
[*,8,7,5]  1 973 2 67 3 197
[*,9,7,5]  1 975 2 399 3 817
[*,10,7,5]  1 574 2 650 3 434
[*,1,8,5]  1 77 2 753 3 651
[*,2,8,5]  1 302 2 413 3 225
[*,3,8,5]  1 393 2 946 3 845
[*,4,8,5]  1 628 2 293 3 672
[*,5,8,5]  1 481 2 784 3 671
[*,6,8,5]  1 472 2 790 3 558
[*,7,8,5]  1 657 2 738 3 99
[*,8,8,5]  1 743 2 824 3 166
[*,9,8,5]  1 260 2 49 3 393
[*,10,8,5]  1 464 2 629 3 234
[*,1,9,5]  1 438 2 866 3 622
[*,2,9,5]  1 547 2 449 3 591
[*,3,9,5]  1 184 2 967 3 997
[*,4,9,5]  1 106 2 409 3 152
[*,5,9,5]  1 995 2 452 3 423
[*,6,9,5]  1 631 2 247 3 981
[*,7,9,5]  1 387 2 526 3 546
[*,8,9,5]  1 524 2 152 3 23
[*,9,9,5]  1 567 2 432 3 634
[*,10,9,5]  1 870 2 218 3 910
[*,1,10,5]  1 489 2 422 3 889
[*,2,10,5]  1 794 2 23 3 141
[*,3,10,5]  1 270 2 223 3 559
[*,4,10,5]  1 988 2 987 3 689
[*,5,10,5]  1 697 2 880 3 390
[*,6,10,5]  1 571 2 969 3 186
[*,7,10,5]  1 165 2 593 3 422
[*,8,10,5]  1 310 2 372 3 597
[*,9,10,5]  1 560 2 527 3 660
[*,10,10,5]  1 654 2 907 3 595
[*,1,1,6]  1 127 2 793 3 149
[*,2,1,6]  1 132 2 301 3 609
[*,3,1,6]  1 479 2 396 3 194
[*,4,1,6]  1 531 2 277 3 887
[*,5,1,6]  1 235 2 863 3 707
[*,6,1,6]  1 140 2 184 3 526
[*,7,1,6]  1 179 2 219 3 757
[*,8,1,6]  1 73 2 845 3 616
[*,9,1,6]  1 832 2 689 3 486
[*,10,1,6]  1 756 2 555 3 821
[*,1,2,6]  1 214 2 821 3 572
[*,2,2,6]  1 572 2 369 3 384
[*,3,2,6]  1 924 2 197 3 878
[*,4,2,6]  1 187 2 833 3 867
[*,5,2,6]  1 147 2 490 3 737
[*,6,2,6]  1 384 2 222 3 577
[*,7,2,6]  1 449 2 658 3 567
[*,8,2,6]  1 384 2 229 3 579
[*,9,2,6]  1 316 2 715 3 902
[*,10,2,6]  1 397 2 262 3 196
[*,1,3,6]  1 908 2 814 3 154
[*,2,3,6]  1 922 2 276 3 797
[*,3,3,6]  1 121 2 750 3 118
[*,4,3,6]  1 539 2 146 3 320
[*,5,3,6]  1 138 2 105 3 560
[*,6,3,6]  1 186 2 80 3 15
[*,7,3,6]  1 477 2 882 3 746
[*,8,3,6]  1 463 2 924 3 360
[*,9,3,6]  1 445 2 879 3 184
[*,10,3,6]  1 996 2 276 3 313
[*,1,4,6]  1 526 2 284 3 668
[*,2,4,6]  1 441 2 76 3 408
[*,3,4,6]  1 979 2 53 3 38
[*,4,4,6]  1 119 2 753 3 562
[*,5,4,6]  1 861 2 716 3 462
[*,6,4,6]  1 399 2 248 3 508
[*,7,4,6]  1 160 2 180 3 77
[*,8,4,6]  1 788 2 494 3 163
[*,9,4,6]  1 400 2 252 3 947
[*,10,4,6]  1 829 2 717 3 768
[*,1,5,6]  1 41 2 403 3 610
[*,2,5,6]  1 607 2 421 3 721
[*,3,5,6]  1 633 2 543 3 437
[*,4,5,6]  1 154 2 113 3 719
[*,5,5,6]  1 866 2 233 3 104
[*,6,5,6]  1 835 2 866 3 187
[*,7,5,6]  1 302 2 966 3 148
[*,8,5,6]  1 880 2 167 3 307
[*,9,5,6]  1 595 2 524 3 820
[*,10,5,6]  1 232 2 241 3 98
[*,1,6,6]  1 588 2 312 3 623
[*,2,6,6]  1 640 2 178 3 369
[*,3,6,6]  1 974 2 424 3 568
[*,4,6,6]  1 207 2 667 3 582
[*,5,6,6]  1 652 2 391 3 561
[*,6,6,6]  1 911 2 569 3 355
[*,7,6,6]  1 681 2 444 3 431
[*,8,6,6]  1 132 2 704 3 851
[*,9,6,6]  1 850 2 218 3 308
[*,10,6,6]  1 919 2 268 3 435
[*,1,7,6]  1 320 2 136 3 601
[*,2,7,6]  1 181 2 960 3 879
[*,3,7,6]  1 113 2 94 3 205
[*,4,7,6]  1 856 2 762 3 14
[*,5,7,6]  1 446 2 183 3 471
[*,6,7,6]  1 103 2 166 3 947
[*,7,7,6]  1 919 2 94 3 317
[*,8,7,6]  1 188 2 476 3 971
[*,9,7,6]  1 441 2 975 3 859
[*,10,7,6]  1 808 2 365 3 651
[*,1,8,6]  1 908 2 109 3 444
[*,2,8,6]  1 402 2 677 3 756
[*,3,8,6]  1 948 2 990 3 654
[*,4,8,6]  1 582 2 146 3 895
[*,5,8,6]  1 526 2 673 3 58
[*,6,8,6]  1 107 2 349 3 728
[*,7,8,6]  1 632 2 527 3 389
[*,8,8,6]  1 192 2 321 3 238
[*,9,8,6]  1 172 2 424 3 646
[*,10,8,6]  1 946 2 469 3 861
[*,1,9,6]  1 349 2 516 3 56
[*,2,9,6]  1 4 2 170 3 837
[*,3,9,6]  1 82 2 41 3 116
[*,4,9,6]  1 237 2 787 3 122
[*,5,9,6]  1 328 2 273 3 147
[*,6,9,6]  1 602 2 289 3 2
[*,7,9,6]  1 726 2 58 3 188
[*,8,9,6]  1 777 2 648 3 535
[*,9,9,6]  1 690 2 211 3 162
[*,10,9,6]  1 241 2 243 3 175
[*,1,10,6]  1 675 2 897 3 313
[*,2,10,6]  1 623 2 514 3 22
[*,3,10,6]  1 626 2 588 3 912
[*,4,10,6]  1 722 2 565 3 911
[*,5,10,6]  1 877 2 950 3 370
[*,6,10,6]  1 122 2 679 3 795
[*,7,10,6]  1 676 2 452 3 653
[*,8,10,6]  1 78 2 247 3 106
[*,9,10,6]  1 900 2 431 3 428
[*,10,10,6]  1 786 2 259 3 67
[*,1,1,7]  1 7 2 954 3 604
[*,2,1,7]  1 661 2 652 3 458
[*,3,1,7]  1 136 2 112 3 46
[*,4,1,7]  1 979 2 821 3 464
[*,5,1,7]  1 155 2 202 3 561
[*,6,1,7]  1 951 2 821 3 749
[*,7,1,7]  1 989 2 933 3 4
[*,8,1,7]  1 678 2 996 3 485
[*,9,1,7]  1 555 2 811 3 245
[*,10,1,7]  1 539 2 354 3 204
[*,1,2,7]  1 958 2 770 3 32
[*,2,2,7]  1 868 2 188 3 864
[*,3,2,7]  1 227 2 207 3 659
[*,4,2,7]  1 413 2 541 3 737
[*,5,2,7]  1 4 2 463 3 932
[*,6,2,7]  1 339 2 885 3 623
[*,7,2,7]  1 251 2 679 3 53
[*,8,2,7]  1 752 2 53 3 471
[*,9,2,7]  1 882 2 461 3 597
[*,10,2,7]  1 919 2 282 3 46
[*,1,3,7]  1 167 2 22 3 201
[*,2,3,7]  1 30 2 449 3 453
[*,3,3,7]  1 79 2 167 3 734
[*,4,3,7]  1 318 2 774 3 652
[*,5,3,7]  1 132 2 466 3 429
[*,6,3,7]  1 252 2 820 3 960
[*,7,3,7]  1 688 2 283 3 590
[*,8,3,7]  1 939 2 494 3 654
[*,9,3,7]  1 592 2 391 3 399
[*,10,3,7]  1 690 2 250 3 289
[*,1,4,7]  1 967 2 91 3 750
[*,2,4,7]  1 121 2 384 3 165
[*,3,4,7]  1 387 2 112 3 821
[*,4,4,7]  1 429 2 331 3 321
[*,5,4,7]  1 457 2 790 3 28
[*,6,4,7]  1 369 2 317 3 746
[*,7,4,7]  1 554 2 752 3 243
[*,8,4,7]  1 524 2 720 3 596
[*,9,4,7]  1 382 2 571 3 632
[*,10,4,7]  1 206 2 552 3 630
[*,1,5,7]  1 686 2 962 3 720
[*,2,5,7]  1 443 2 732 3 958
[*,3,5,7]  1 629 2 219 3 191
[*,4,5,7]  1 270 2 270 3 188
[*,5,5,7]  1 504 2 897 3 538
[*,6,5,7]  1 913 2 153 3 222
[*,7,5,7]  1 876 2 551 3 860
[*,8,5,7]  1 320 2 145 3 924
[*,9,5,7]  1 318 2 539 3 274
[*,10,5,7]  1 83 2 918 3 585
[*,1,6,7]  1 454 2 36 3 526
[*,2,6,7]  1 756 2 780 3 429
[*,3,6,7]  1 297 2 74 3 288
[*,4,6,7]  1 294 2 888 3 791
[*,5,6,7]  1 260 2 404 3 194
[*,6,6,7]  1 189 2 531 3 384
[*,7,6,7]  1 924 2 599 3 278
[*,8,6,7]  1 509 2 896 3 328
[*,9,6,7]  1 445 2 4 3 942
[*,10,6,7]  1 520 2 511 3 780
[*,1,7,7]  1 678 2 41 3 786
[*,2,7,7]  1 727 2 240 3 119
[*,3,7,7]  1 813 2 110 3 247
[*,4,7,7]  1 845 2 710 3 134
[*,5,7,7]  1 906 2 635 3 522
[*,6,7,7]  1 448 2 166 3 377
[*,7,7,7]  1 704 2 234 3 280
[*,8,7,7]  1 344 2 895 3 504
[*,9,7,7]  1 931 2 868 3 42
[*,10,7,7]  1 437 2 374 3 436
[*,1,8,7]  1 758 2 873 3 620
[*,2,8,7]  1 124 2 490 3 605
[*,3,8,7]  1 805 2 222 3 766
[*,4,8,7]  1 707 2 304 3 492
[*,5,8,7]  1 252 2 954 3 31
[*,6,8,7]  1 771 2 856 3 343
[*,7,8,7]  1 633 2 492 3 411
[*,8,8,7]  1 808 2 961 3 295
[*,9,8,7]  1 778 2 515 3 284
[*,10,8,7]  1 99 2 320 3 504
[*,1,9,7]  1 215 2 868 3 801
[*,2,9,7]  1 65 2 180 3 862
[*,3,9,7]  1 720 2 934 3 607
[*,4,9,7]  1 313 2 976 3 278
[*,5,9,7]  1 677 2 330 3 545
[*,6,9,7]  1 527 2 634 3 339
[*,7,9,7]  1 546 2 247 3 127
[*,8,9,7]  1 481 2 660 3 663
[*,9,9,7]  1 36 2 259 3 389
[*,10,9,7]  1 912 2 506 3 121
[*,1,10,7]  1 31 2 802 3 718
[*,2,10,7]  1 866 2 592 3 661
[*,3,10,7]  1 17 2 453 3 48
[*,4,10,7]  1 849 2 592 3 312
[*,5,10,7]  1 527 2 646 3 868
[*,6,10,7]  1 278 2 1 3 516
[*,7,10,7]  1 126 2 58 3 32
[*,8,10,7]  1 201 2 621 3 530
[*,9,10,7]  1 945 2 710 3 680
[*,10,10,7]  1 232 2 583 3 13
[*,1,1,8]  1 813 2 109 3 441
[*,2,1,8]  1 205 2 886 3 985
[*,3,1,8]  1 540 2 931 3 761
[*,4,1,8]  1 210 2 907 3 136
[*,5,1,8]  1 671 2 664 3 852
[*,6,1,8]  1 574 2 733 3 610
[*,7,1,8]  1 581 2 56 3 685
[*,8,1,8]  1 890 2 828 3 112
[*,9,1,8]  1 902 2 626 3 316
[*,10,1,8]  1 611 2 203 3 878
[*,1,2,8]  1 839 2 884 3 777
[*,2,2,8]  1 690 2 708 3 69
[*,3,2,8]  1 807 2 572 3 55
[*,4,2,8]  1 729 2 12 3 749
[*,5,2,8]  1 295 2 247 3 375
[*,6,2,8]  1 431 2 595 3 193
[*,7,2,8]  1 788 2 962 3 805
[*,8,2,8]  1 588 2 210 3 950
[*,9,2,8]  1 691 2 994 3 192
[*,10,2,8]  1 377 2 705 3 428
[*,1,3,8]  1 332 2 249 3 741
[*,2,3,8]  1 390 2 253 3 572
[*,3,3,8]  1 528 2 691 3 249
[*,4,3,8]  1 300 2 344 3 351
[*,5,3,8]  1 582 2 437 3 724
[*,6,3,8]  1 573 2 754 3 646
[*,7,3,8]  1 713 2 678 3 776
[*,8,3,8]  1 586 2 15 3 943
[*,9,3,8]  1 546 2 668 3 39
[*,10,3,8]  1 457 2 22 3 80
[*,1,4,8]  1 505 2 511 3 732
[*,2,4,8]  1 758 2 708 3 498
[*,3,4,8]  1 569 2 427 3 19
[*,4,4,8]  1 16 2 501 3 958
[*,5,4,8]  1 455 2 657 3 998
[*,6,4,8]  1 80 2 421 3 964
[*,7,4,8]  1 536 2 911 3 836
[*,8,4,8]  1 177 2 467 3 858
[*,9,4,8]  1 888 2 671 3 947
[*,10,4,8]  1 199 2 621 3 448
[*,1,5,8]  1 350 2 35 3 390
[*,2,5,8]  1 651 2 789 3 406
[*,3,5,8]  1 981 2 828 3 956
[*,4,5,8]  1 21 2 859 3 598
[*,5,5,8]  1 458 2 482 3 568
[*,6,5,8]  1 428 2 246 3 866
[*,7,5,8]  1 779 2 498 3 524
[*,8,5,8]  1 242 2 870 3 983
[*,9,5,8]  1 726 2 27 3 199
[*,10,5,8]  1 629 2 789 3 83
[*,1,6,8]  1 436 2 237 3 938
[*,2,6,8]  1 118 2 395 3 470
[*,3,6,8]  1 640 2 252 3 847
[*,4,6,8]  1 457 2 238 3 591
[*,5,6,8]  1 672 2 804 3 970
[*,6,6,8]  1 247 2 541 3 983
[*,7,6,8]  1 769 2 560 3 54
[*,8,6,8]  1 505 2 254 3 174
[*,9,6,8]  1 856 2 964 3 817
[*,10,6,8]  1 224 2 834 3 810
[*,1,7,8]  1 540 2 161 3 900
[*,2,7,8]  1 660 2 970 3 592
[*,3,7,8]  1 236 2 72 3 446
[*,4,7,8]  1 140 2 127 3 964
[*,5,7,8]  1 761 2 475 3 670
[*,6,7,8]  1 275 2 427 3 597
[*,7,7,8]  1 707 2 46 3 711
[*,8,7,8]  1 944 2 318 3 834
[*,9,7,8]  1 897 2 102 3 76
[*,10,7,8]  1 243 2 966 3 718
[*,1,8,8]  1 51 2 430 3 973
[*,2,8,8]  1 730 2 270 3 605
[*,3,8,8]  1 928 2 181 3 891
[*,4,8,8]  1 931 2 925 3 670
[*,5,8,8]  1 903 2 741 3 581
[*,6,8,8]  1 995 2 536 3 633
[*,7,8,8]  1 602 2 635 3 910
[*,8,8,8]  1 856 2 420 3 509
[*,9,8,8]  1 660 2 373 3 412
[*,10,8,8]  1 886 2 408 3 116
[*,1,9,8]  1 169 2 414 3 994
[*,2,9,8]  1 257 2 634 3 958
[*,3,9,8]  1 306 2 753 3 711
[*,4,9,8]  1 380 2 421 3 44
[*,5,9,8]  1 129 2 422 3 502
[*,6,9,8]  1 540 2 900 3 586
[*,7,9,8]  1 566 2 440 3 742
[*,8,9,8]  1 261 2 807 3 534
[*,9,9,8]  1 189 2 398 3 631
[*,10,9,8]  1 825 2 950 3 697
[*,1,10,8]  1 935 2 238 3 252
[*,2,10,8]  1 619 2 455 3 197
[*,3,10,8]  1 555 2 545 3 194
[*,4,10,8]  1 568 2 7 3 28
[*,5,10,8]  1 45 2 323 3 470
[*,6,10,8]  1 431 2 725 3 271
[*,7,10,8]  1 744 2 171 3 52
[*,8,10,8]  1 402 2 906 3 451
[*,9,10,8]  1 407 2 694 3 258
[*,10,10,8]  1 601 2 950 3 723
[*,1,1,9]  1 506 2 114 3 798
[*,2,1,9]  1 44 2 179 3 36
[*,3,1,9]  1 889 2 124 3 222
[*,4,1,9]  1 632 2 717 3 534
[*,5,1,9]  1 918 2 125 3 469
[*,6,1,9]  1 240 2 1 3 909
[*,7,1,9]  1 332 2 63 3 907
[*,8,1,9]  1 798 2 926 3 833
[*,9,1,9]  1 561 2 801 3 869
[*,10,1,9]  1 312 2 57 3 394
[*,1,2,9]  1 454 2 701 3 822
[*,2,2,9]  1 476 2 307 3 426
[*,3,2,9]  1 614 2 25 3 673
[*,4,2,9]  1 966 2 792 3 963
[*,5,2,9]  1 669 2 646 3 827
[*,6,2,9]  1 897 2 458 3 723
[*,7,2,9]  1 946 2 221 3 769
[*,8,2,9]  1 556 2 125 3 517
[*,9,2,9]  1 639 2 358 3 419
[*,10,2,9]  1 309 2 540 3 838
[*,1,3,9]  1 707 2 31 3 292
[*,2,3,9]  1 19 2 545 3 479
[*,3,3,9]  1 292 2 665 3 729
[*,4,3,9]  1 107 2 620 3 37
[*,5,3,9]  1 554 2 298 3 526
[*,6,3,9]  1 148 2 527 3 112
[*,7,3,9]  1 661 2 304 3 471
[*,8,3,9]  1 107 2 154 3 462
[*,9,3,9]  1 521 2 508 3 308
[*,10,3,9]  1 876 2 528 3 410
[*,1,4,9]  1 256 2 558 3 761
[*,2,4,9]  1 689 2 382 3 327
[*,3,4,9]  1 623 2 23 3 715
[*,4,4,9]  1 600 2 266 3 717
[*,5,4,9]  1 745 2 619 3 650
[*,6,4,9]  1 72 2 366 3 523
[*,7,4,9]  1 586 2 655 3 688
[*,8,4,9]  1 508 2 721 3 154
[*,9,4,9]  1 505 2 357 3 281
[*,10,4,9]  1 463 2 97 3 761
[*,1,5,9]  1 613 2 266 3 879
[*,2,5,9]  1 211 2 211 3 661
[*,3,5,9]  1 109 2 691 3 965
[*,4,5,9]  1 316 2 521 3 60
[*,5,5,9]  1 841 2 211 3 272
[*,6,5,9]  1 797 2 39 3 306
[*,7,5,9]  1 38 2 733 3 976
[*,8,5,9]  1 335 2 436 3 509
[*,9,5,9]  1 94 2 522 3 223
[*,10,5,9]  1 742 2 595 3 215
[*,1,6,9]  1 858 2 328 3 671
[*,2,6,9]  1 299 2 98 3 854
[*,3,6,9]  1 724 2 794 3 272
[*,4,6,9]  1 862 2 339 3 214
[*,5,6,9]  1 749 2 541 3 511
[*,6,6,9]  1 120 2 902 3 539
[*,7,6,9]  1 711 2 771 3 578
[*,8,6,9]  1 706 2 937 3 961
[*,9,6,9]  1 659 2 13 3 768
[*,10,6,9]  1 918 2 824 3 338
[*,1,7,9]  1 836 2 619 3 17
[*,2,7,9]  1 533 2 803 3 979
[*,3,7,9]  1 466 2 974 3 146
[*,4,7,9]  1 184 2 290 3 793
[*,5,7,9]  1 529 2 829 3 886
[*,6,7,9]  1 130 2 576 3 655
[*,7,7,9]  1 321 2 32 3 156
[*,8,7,9]  1 395 2 882 3 80
[*,9,7,9]  1 107 2 654 3 801
[*,10,7,9]  1 415 2 483 3 819
[*,1,8,9]  1 917 2 642 3 999
[*,2,8,9]  1 681 2 712 3 940
[*,3,8,9]  1 315 2 860 3 700
[*,4,8,9]  1 852 2 248 3 121
[*,5,8,9]  1 647 2 415 3 737
[*,6,8,9]  1 371 2 475 3 682
[*,7,8,9]  1 647 2 461 3 968
[*,8,8,9]  1 265 2 77 3 926
[*,9,8,9]  1 623 2 184 3 888
[*,10,8,9]  1 417 2 63 3 187
[*,1,9,9]  1 567 2 942 3 441
[*,2,9,9]  1 726 2 383 3 936
[*,3,9,9]  1 184 2 919 3 50
[*,4,9,9]  1 863 2 220 3 180
[*,5,9,9]  1 722 2 276 3 596
[*,6,9,9]  1 653 2 237 3 248
[*,7,9,9]  1 969 2 249 3 946
[*,8,9,9]  1 624 2 41 3 859
[*,9,9,9]  1 357 2 845 3 418
[*,10,9,9]  1 287 2 74 3 953
[*,1,10,9]  1 735 2 526 3 214
[*,2,10,9]  1 975 2 143 3 289
[*,3,10,9]  1 529 2 84 3 407
[*,4,10,9]  1 112 2 984 3 816
[*,5,10,9]  1 947 2 922 3 427
[*,6,10,9]  1 148 2 107 3 701
[*,7,10,9]  1 276 2 418 3 841
[*,8,10,9]  1 755 2 875 3 923
[*,9,10,9]  1 767 2 152 3 275
[*,10,10,9]  1 525 2 250 3 80
[*,1,1,10]  1 716 2 729 3 768
[*,2,1,10]  1 250 2 14 3 544
[*,3,1,10]  1 308 2 963 3 398
[*,4,1,10]  1 861 2 986 3 139
[*,5,1,10]  1 67 2 240 3 344
[*,6,1,10]  1 432 2 890 3 754
[*,7,1,10]  1 66 2 537 3 230
[*,8,1,10]  1 983 2 935 3 924
[*,9,1,10]  1 817 2 338 3 908
[*,10,1,10]  1 532 2 973 3 641
[*,1,2,10]  1 137 2 417 3 250
[*,2,2,10]  1 297 2 598 3 942
[*,3,2,10]  1 729 2 441 3 744
[*,4,2,10]  1 858 2 813 3 178
[*,5,2,10]  1 284 2 552 3 310
[*,6,2,10]  1 382 2 711 3 814
[*,7,2,10]  1 48 2 571 3 731
[*,8,2,10]  1 699 2 6 3 41
[*,9,2,10]  1 80 2 456 3 203
[*,10,2,10]  1 802 2 530 3 20
[*,1,3,10]  1 169 2 835 3 48
[*,2,3,10]  1 307 2 866 3 858
[*,3,3,10]  1 224 2 348 3 326
[*,4,3,10]  1 93 2 12 3 369
[*,5,3,10]  1 138 2 493 3 819
[*,6,3,10]  1 49 2 130 3 505
[*,7,3,10]  1 729 2 539 3 250
[*,8,3,10]  1 731 2 423 3 301
[*,9,3,10]  1 697 2 783 3 940
[*,10,3,10]  1 451 2 815 3 209
[*,1,4,10]  1 9 2 104 3 124
[*,2,4,10]  1 624 2 75 3 150
[*,3,4,10]  1 131 2 84 3 533
[*,4,4,10]  1 19 2 247 3 292
[*,5,4,10]  1 907 2 224 3 215
[*,6,4,10]  1 447 2 895 3 926
[*,7,4,10]  1 937 2 419 3 256
[*,8,4,10]  1 309 2 500 3 460
[*,9,4,10]  1 485 2 306 3 482
[*,10,4,10]  1 841 2 122 3 93
[*,1,5,10]  1 353 2 664 3 300
[*,2,5,10]  1 819 2 860 3 560
[*,3,5,10]  1 850 2 229 3 862
[*,4,5,10]  1 180 2 872 3 210
[*,5,5,10]  1 948 2 162 3 188
[*,6,5,10]  1 790 2 551 3 740
[*,7,5,10]  1 494 2 793 3 979
[*,8,5,10]  1 274 2 365 3 172
[*,9,5,10]  1 956 2 773 3 478
[*,10,5,10]  1 46 2 783 3 890
[*,1,6,10]  1 535 2 569 3 235
[*,2,6,10]  1 995 2 446 3 83
[*,3,6,10]  1 621 2 646 3 214
[*,4,6,10]  1 445 2 245 3 206
[*,5,6,10]  1 877 2 23 3 667
[*,6,6,10]  1 387 2 564 3 621
[*,7,6,10]  1 745 2 261 3 410
[*,8,6,10]  1 522 2 429 3 590
[*,9,6,10]  1 646 2 882 3 677
[*,10,6,10]  1 415 2 630 3 992
[*,1,7,10]  1 665 2 491 3 994
[*,2,7,10]  1 249 2 667 3 500
[*,3,7,10]  1 340 2 279 3 595
[*,4,7,10]  1 993 2 138 3 312
[*,5,7,10]  1 211 2 641 3 546
[*,6,7,10]  1 804 2 460 3 684
[*,7,7,10]  1 920 2 262 3 183
[*,8,7,10]  1 472 2 641 3 462
[*,9,7,10]  1 728 2 546 3 742
[*,10,7,10]  1 520 2 620 3 55
[*,1,8,10]  1 540 2 777 3 492
[*,2,8,10]  1 196 2 76 3 116
[*,3,8,10]  1 944 2 958 3 743
[*,4,8,10]  1 86 2 874 3 733
[*,5,8,10]  1 889 2 192 3 55
[*,6,8,10]  1 202 2 564 3 787
[*,7,8,10]  1 475 2 525 3 804
[*,8,8,10]  1 297 2 962 3 33
[*,9,8,10]  1 22 2 898 3 174
[*,10,8,10]  1 516 2 149 3 352
[*,1,9,10]  1 887 2 726 3 125
[*,2,9,10]  1 462 2 828 3 891
[*,3,9,10]  1 230 2 436 3 16
[*,4,9,10]  1 882 2 539 3 568
[*,5,9,10]  1 674 2 178 3 452
[*,6,9,10]  1 785 2 311 3 913
[*,7,9,10]  1 881 2 993 3 482
[*,8,9,10]  1 112 2 152 3 659
[*,9,9,10]  1 83 2 683 3 118
[*,10,9,10]  1 751 2 767 3 855
[*,1,10,10]  1 258 2 948 3 223
[*,2,10,10]  1 519 2 821 3 60
[*,3,10,10]  1 595 2 400 3 129
[*,4,10,10]  1 689 2 291 3 23
[*,5,10,10]  1 254 2 498 3 798
[*,6,10,10]  1 234 2 196 3 870
[*,7,10,10]  1 870 2 417 3 532
[*,8,10,10]  1 369 2 651 3 599
[*,9,10,10]  1 276 2 172 3 881
[*,10,10,10]  1 374 2 355 3 545;

#param U :=  1 998.0 2 995.0 3 998.0;
#param pu :=  1 1000.0 2 996.0 3 1000.0;
#param pl :=  1 2.0 2 1.0 3 2.0;
